c *********************************
c * Circuit generated by BenCGen
c *
c * RippleCarryAdderSubtractor_43_43_43_OutSunT
c *
c * Ports with 1 gate(s): 2
c * Ports with 2 gate(s): 260
c * Total gates: 262
c *********************************
p cnf 348 914
1 132 0
-1 -132 0
1 -131 0
132 -131 0
-1 -132 131 0
131 133 0
-131 -133 0
44 131 -134 0
-44 131 134 0
44 -131 134 0
-44 -131 -134 0
45 131 -135 0
-45 131 135 0
45 -131 135 0
-45 -131 -135 0
46 131 -136 0
-46 131 136 0
46 -131 136 0
-46 -131 -136 0
47 131 -137 0
-47 131 137 0
47 -131 137 0
-47 -131 -137 0
48 131 -138 0
-48 131 138 0
48 -131 138 0
-48 -131 -138 0
49 131 -139 0
-49 131 139 0
49 -131 139 0
-49 -131 -139 0
50 131 -140 0
-50 131 140 0
50 -131 140 0
-50 -131 -140 0
51 131 -141 0
-51 131 141 0
51 -131 141 0
-51 -131 -141 0
52 131 -142 0
-52 131 142 0
52 -131 142 0
-52 -131 -142 0
53 131 -143 0
-53 131 143 0
53 -131 143 0
-53 -131 -143 0
54 131 -144 0
-54 131 144 0
54 -131 144 0
-54 -131 -144 0
55 131 -145 0
-55 131 145 0
55 -131 145 0
-55 -131 -145 0
56 131 -146 0
-56 131 146 0
56 -131 146 0
-56 -131 -146 0
57 131 -147 0
-57 131 147 0
57 -131 147 0
-57 -131 -147 0
58 131 -148 0
-58 131 148 0
58 -131 148 0
-58 -131 -148 0
59 131 -149 0
-59 131 149 0
59 -131 149 0
-59 -131 -149 0
60 131 -150 0
-60 131 150 0
60 -131 150 0
-60 -131 -150 0
61 131 -151 0
-61 131 151 0
61 -131 151 0
-61 -131 -151 0
62 131 -152 0
-62 131 152 0
62 -131 152 0
-62 -131 -152 0
63 131 -153 0
-63 131 153 0
63 -131 153 0
-63 -131 -153 0
64 131 -154 0
-64 131 154 0
64 -131 154 0
-64 -131 -154 0
65 131 -155 0
-65 131 155 0
65 -131 155 0
-65 -131 -155 0
66 131 -156 0
-66 131 156 0
66 -131 156 0
-66 -131 -156 0
67 131 -157 0
-67 131 157 0
67 -131 157 0
-67 -131 -157 0
68 131 -158 0
-68 131 158 0
68 -131 158 0
-68 -131 -158 0
69 131 -159 0
-69 131 159 0
69 -131 159 0
-69 -131 -159 0
70 131 -160 0
-70 131 160 0
70 -131 160 0
-70 -131 -160 0
71 131 -161 0
-71 131 161 0
71 -131 161 0
-71 -131 -161 0
72 131 -162 0
-72 131 162 0
72 -131 162 0
-72 -131 -162 0
73 131 -163 0
-73 131 163 0
73 -131 163 0
-73 -131 -163 0
74 131 -164 0
-74 131 164 0
74 -131 164 0
-74 -131 -164 0
75 131 -165 0
-75 131 165 0
75 -131 165 0
-75 -131 -165 0
76 131 -166 0
-76 131 166 0
76 -131 166 0
-76 -131 -166 0
77 131 -167 0
-77 131 167 0
77 -131 167 0
-77 -131 -167 0
78 131 -168 0
-78 131 168 0
78 -131 168 0
-78 -131 -168 0
79 131 -169 0
-79 131 169 0
79 -131 169 0
-79 -131 -169 0
80 131 -170 0
-80 131 170 0
80 -131 170 0
-80 -131 -170 0
81 131 -171 0
-81 131 171 0
81 -131 171 0
-81 -131 -171 0
82 131 -172 0
-82 131 172 0
82 -131 172 0
-82 -131 -172 0
83 131 -173 0
-83 131 173 0
83 -131 173 0
-83 -131 -173 0
84 131 -174 0
-84 131 174 0
84 -131 174 0
-84 -131 -174 0
85 131 -175 0
-85 131 175 0
85 -131 175 0
-85 -131 -175 0
86 131 -176 0
-86 131 176 0
86 -131 176 0
-86 -131 -176 0
1 134 -178 0
-1 134 178 0
1 -134 178 0
-1 -134 -178 0
178 131 -87 0
-178 131 87 0
178 -131 87 0
-178 -131 -87 0
131 -179 0
178 -179 0
-131 -178 179 0
134 -180 0
1 -180 0
-134 -1 180 0
-179 177 0
-180 177 0
179 180 -177 0
2 135 -182 0
-2 135 182 0
2 -135 182 0
-2 -135 -182 0
182 177 -88 0
-182 177 88 0
182 -177 88 0
-182 -177 -88 0
177 -183 0
182 -183 0
-177 -182 183 0
135 -184 0
2 -184 0
-135 -2 184 0
-183 181 0
-184 181 0
183 184 -181 0
3 136 -186 0
-3 136 186 0
3 -136 186 0
-3 -136 -186 0
186 181 -89 0
-186 181 89 0
186 -181 89 0
-186 -181 -89 0
181 -187 0
186 -187 0
-181 -186 187 0
136 -188 0
3 -188 0
-136 -3 188 0
-187 185 0
-188 185 0
187 188 -185 0
4 137 -190 0
-4 137 190 0
4 -137 190 0
-4 -137 -190 0
190 185 -90 0
-190 185 90 0
190 -185 90 0
-190 -185 -90 0
185 -191 0
190 -191 0
-185 -190 191 0
137 -192 0
4 -192 0
-137 -4 192 0
-191 189 0
-192 189 0
191 192 -189 0
5 138 -194 0
-5 138 194 0
5 -138 194 0
-5 -138 -194 0
194 189 -91 0
-194 189 91 0
194 -189 91 0
-194 -189 -91 0
189 -195 0
194 -195 0
-189 -194 195 0
138 -196 0
5 -196 0
-138 -5 196 0
-195 193 0
-196 193 0
195 196 -193 0
6 139 -198 0
-6 139 198 0
6 -139 198 0
-6 -139 -198 0
198 193 -92 0
-198 193 92 0
198 -193 92 0
-198 -193 -92 0
193 -199 0
198 -199 0
-193 -198 199 0
139 -200 0
6 -200 0
-139 -6 200 0
-199 197 0
-200 197 0
199 200 -197 0
7 140 -202 0
-7 140 202 0
7 -140 202 0
-7 -140 -202 0
202 197 -93 0
-202 197 93 0
202 -197 93 0
-202 -197 -93 0
197 -203 0
202 -203 0
-197 -202 203 0
140 -204 0
7 -204 0
-140 -7 204 0
-203 201 0
-204 201 0
203 204 -201 0
8 141 -206 0
-8 141 206 0
8 -141 206 0
-8 -141 -206 0
206 201 -94 0
-206 201 94 0
206 -201 94 0
-206 -201 -94 0
201 -207 0
206 -207 0
-201 -206 207 0
141 -208 0
8 -208 0
-141 -8 208 0
-207 205 0
-208 205 0
207 208 -205 0
9 142 -210 0
-9 142 210 0
9 -142 210 0
-9 -142 -210 0
210 205 -95 0
-210 205 95 0
210 -205 95 0
-210 -205 -95 0
205 -211 0
210 -211 0
-205 -210 211 0
142 -212 0
9 -212 0
-142 -9 212 0
-211 209 0
-212 209 0
211 212 -209 0
10 143 -214 0
-10 143 214 0
10 -143 214 0
-10 -143 -214 0
214 209 -96 0
-214 209 96 0
214 -209 96 0
-214 -209 -96 0
209 -215 0
214 -215 0
-209 -214 215 0
143 -216 0
10 -216 0
-143 -10 216 0
-215 213 0
-216 213 0
215 216 -213 0
11 144 -218 0
-11 144 218 0
11 -144 218 0
-11 -144 -218 0
218 213 -97 0
-218 213 97 0
218 -213 97 0
-218 -213 -97 0
213 -219 0
218 -219 0
-213 -218 219 0
144 -220 0
11 -220 0
-144 -11 220 0
-219 217 0
-220 217 0
219 220 -217 0
12 145 -222 0
-12 145 222 0
12 -145 222 0
-12 -145 -222 0
222 217 -98 0
-222 217 98 0
222 -217 98 0
-222 -217 -98 0
217 -223 0
222 -223 0
-217 -222 223 0
145 -224 0
12 -224 0
-145 -12 224 0
-223 221 0
-224 221 0
223 224 -221 0
13 146 -226 0
-13 146 226 0
13 -146 226 0
-13 -146 -226 0
226 221 -99 0
-226 221 99 0
226 -221 99 0
-226 -221 -99 0
221 -227 0
226 -227 0
-221 -226 227 0
146 -228 0
13 -228 0
-146 -13 228 0
-227 225 0
-228 225 0
227 228 -225 0
14 147 -230 0
-14 147 230 0
14 -147 230 0
-14 -147 -230 0
230 225 -100 0
-230 225 100 0
230 -225 100 0
-230 -225 -100 0
225 -231 0
230 -231 0
-225 -230 231 0
147 -232 0
14 -232 0
-147 -14 232 0
-231 229 0
-232 229 0
231 232 -229 0
15 148 -234 0
-15 148 234 0
15 -148 234 0
-15 -148 -234 0
234 229 -101 0
-234 229 101 0
234 -229 101 0
-234 -229 -101 0
229 -235 0
234 -235 0
-229 -234 235 0
148 -236 0
15 -236 0
-148 -15 236 0
-235 233 0
-236 233 0
235 236 -233 0
16 149 -238 0
-16 149 238 0
16 -149 238 0
-16 -149 -238 0
238 233 -102 0
-238 233 102 0
238 -233 102 0
-238 -233 -102 0
233 -239 0
238 -239 0
-233 -238 239 0
149 -240 0
16 -240 0
-149 -16 240 0
-239 237 0
-240 237 0
239 240 -237 0
17 150 -242 0
-17 150 242 0
17 -150 242 0
-17 -150 -242 0
242 237 -103 0
-242 237 103 0
242 -237 103 0
-242 -237 -103 0
237 -243 0
242 -243 0
-237 -242 243 0
150 -244 0
17 -244 0
-150 -17 244 0
-243 241 0
-244 241 0
243 244 -241 0
18 151 -246 0
-18 151 246 0
18 -151 246 0
-18 -151 -246 0
246 241 -104 0
-246 241 104 0
246 -241 104 0
-246 -241 -104 0
241 -247 0
246 -247 0
-241 -246 247 0
151 -248 0
18 -248 0
-151 -18 248 0
-247 245 0
-248 245 0
247 248 -245 0
19 152 -250 0
-19 152 250 0
19 -152 250 0
-19 -152 -250 0
250 245 -105 0
-250 245 105 0
250 -245 105 0
-250 -245 -105 0
245 -251 0
250 -251 0
-245 -250 251 0
152 -252 0
19 -252 0
-152 -19 252 0
-251 249 0
-252 249 0
251 252 -249 0
20 153 -254 0
-20 153 254 0
20 -153 254 0
-20 -153 -254 0
254 249 -106 0
-254 249 106 0
254 -249 106 0
-254 -249 -106 0
249 -255 0
254 -255 0
-249 -254 255 0
153 -256 0
20 -256 0
-153 -20 256 0
-255 253 0
-256 253 0
255 256 -253 0
21 154 -258 0
-21 154 258 0
21 -154 258 0
-21 -154 -258 0
258 253 -107 0
-258 253 107 0
258 -253 107 0
-258 -253 -107 0
253 -259 0
258 -259 0
-253 -258 259 0
154 -260 0
21 -260 0
-154 -21 260 0
-259 257 0
-260 257 0
259 260 -257 0
22 155 -262 0
-22 155 262 0
22 -155 262 0
-22 -155 -262 0
262 257 -108 0
-262 257 108 0
262 -257 108 0
-262 -257 -108 0
257 -263 0
262 -263 0
-257 -262 263 0
155 -264 0
22 -264 0
-155 -22 264 0
-263 261 0
-264 261 0
263 264 -261 0
23 156 -266 0
-23 156 266 0
23 -156 266 0
-23 -156 -266 0
266 261 -109 0
-266 261 109 0
266 -261 109 0
-266 -261 -109 0
261 -267 0
266 -267 0
-261 -266 267 0
156 -268 0
23 -268 0
-156 -23 268 0
-267 265 0
-268 265 0
267 268 -265 0
24 157 -270 0
-24 157 270 0
24 -157 270 0
-24 -157 -270 0
270 265 -110 0
-270 265 110 0
270 -265 110 0
-270 -265 -110 0
265 -271 0
270 -271 0
-265 -270 271 0
157 -272 0
24 -272 0
-157 -24 272 0
-271 269 0
-272 269 0
271 272 -269 0
25 158 -274 0
-25 158 274 0
25 -158 274 0
-25 -158 -274 0
274 269 -111 0
-274 269 111 0
274 -269 111 0
-274 -269 -111 0
269 -275 0
274 -275 0
-269 -274 275 0
158 -276 0
25 -276 0
-158 -25 276 0
-275 273 0
-276 273 0
275 276 -273 0
26 159 -278 0
-26 159 278 0
26 -159 278 0
-26 -159 -278 0
278 273 -112 0
-278 273 112 0
278 -273 112 0
-278 -273 -112 0
273 -279 0
278 -279 0
-273 -278 279 0
159 -280 0
26 -280 0
-159 -26 280 0
-279 277 0
-280 277 0
279 280 -277 0
27 160 -282 0
-27 160 282 0
27 -160 282 0
-27 -160 -282 0
282 277 -113 0
-282 277 113 0
282 -277 113 0
-282 -277 -113 0
277 -283 0
282 -283 0
-277 -282 283 0
160 -284 0
27 -284 0
-160 -27 284 0
-283 281 0
-284 281 0
283 284 -281 0
28 161 -286 0
-28 161 286 0
28 -161 286 0
-28 -161 -286 0
286 281 -114 0
-286 281 114 0
286 -281 114 0
-286 -281 -114 0
281 -287 0
286 -287 0
-281 -286 287 0
161 -288 0
28 -288 0
-161 -28 288 0
-287 285 0
-288 285 0
287 288 -285 0
29 162 -290 0
-29 162 290 0
29 -162 290 0
-29 -162 -290 0
290 285 -115 0
-290 285 115 0
290 -285 115 0
-290 -285 -115 0
285 -291 0
290 -291 0
-285 -290 291 0
162 -292 0
29 -292 0
-162 -29 292 0
-291 289 0
-292 289 0
291 292 -289 0
30 163 -294 0
-30 163 294 0
30 -163 294 0
-30 -163 -294 0
294 289 -116 0
-294 289 116 0
294 -289 116 0
-294 -289 -116 0
289 -295 0
294 -295 0
-289 -294 295 0
163 -296 0
30 -296 0
-163 -30 296 0
-295 293 0
-296 293 0
295 296 -293 0
31 164 -298 0
-31 164 298 0
31 -164 298 0
-31 -164 -298 0
298 293 -117 0
-298 293 117 0
298 -293 117 0
-298 -293 -117 0
293 -299 0
298 -299 0
-293 -298 299 0
164 -300 0
31 -300 0
-164 -31 300 0
-299 297 0
-300 297 0
299 300 -297 0
32 165 -302 0
-32 165 302 0
32 -165 302 0
-32 -165 -302 0
302 297 -118 0
-302 297 118 0
302 -297 118 0
-302 -297 -118 0
297 -303 0
302 -303 0
-297 -302 303 0
165 -304 0
32 -304 0
-165 -32 304 0
-303 301 0
-304 301 0
303 304 -301 0
33 166 -306 0
-33 166 306 0
33 -166 306 0
-33 -166 -306 0
306 301 -119 0
-306 301 119 0
306 -301 119 0
-306 -301 -119 0
301 -307 0
306 -307 0
-301 -306 307 0
166 -308 0
33 -308 0
-166 -33 308 0
-307 305 0
-308 305 0
307 308 -305 0
34 167 -310 0
-34 167 310 0
34 -167 310 0
-34 -167 -310 0
310 305 -120 0
-310 305 120 0
310 -305 120 0
-310 -305 -120 0
305 -311 0
310 -311 0
-305 -310 311 0
167 -312 0
34 -312 0
-167 -34 312 0
-311 309 0
-312 309 0
311 312 -309 0
35 168 -314 0
-35 168 314 0
35 -168 314 0
-35 -168 -314 0
314 309 -121 0
-314 309 121 0
314 -309 121 0
-314 -309 -121 0
309 -315 0
314 -315 0
-309 -314 315 0
168 -316 0
35 -316 0
-168 -35 316 0
-315 313 0
-316 313 0
315 316 -313 0
36 169 -318 0
-36 169 318 0
36 -169 318 0
-36 -169 -318 0
318 313 -122 0
-318 313 122 0
318 -313 122 0
-318 -313 -122 0
313 -319 0
318 -319 0
-313 -318 319 0
169 -320 0
36 -320 0
-169 -36 320 0
-319 317 0
-320 317 0
319 320 -317 0
37 170 -322 0
-37 170 322 0
37 -170 322 0
-37 -170 -322 0
322 317 -123 0
-322 317 123 0
322 -317 123 0
-322 -317 -123 0
317 -323 0
322 -323 0
-317 -322 323 0
170 -324 0
37 -324 0
-170 -37 324 0
-323 321 0
-324 321 0
323 324 -321 0
38 171 -326 0
-38 171 326 0
38 -171 326 0
-38 -171 -326 0
326 321 -124 0
-326 321 124 0
326 -321 124 0
-326 -321 -124 0
321 -327 0
326 -327 0
-321 -326 327 0
171 -328 0
38 -328 0
-171 -38 328 0
-327 325 0
-328 325 0
327 328 -325 0
39 172 -330 0
-39 172 330 0
39 -172 330 0
-39 -172 -330 0
330 325 -125 0
-330 325 125 0
330 -325 125 0
-330 -325 -125 0
325 -331 0
330 -331 0
-325 -330 331 0
172 -332 0
39 -332 0
-172 -39 332 0
-331 329 0
-332 329 0
331 332 -329 0
40 173 -334 0
-40 173 334 0
40 -173 334 0
-40 -173 -334 0
334 329 -126 0
-334 329 126 0
334 -329 126 0
-334 -329 -126 0
329 -335 0
334 -335 0
-329 -334 335 0
173 -336 0
40 -336 0
-173 -40 336 0
-335 333 0
-336 333 0
335 336 -333 0
41 174 -338 0
-41 174 338 0
41 -174 338 0
-41 -174 -338 0
338 333 -127 0
-338 333 127 0
338 -333 127 0
-338 -333 -127 0
333 -339 0
338 -339 0
-333 -338 339 0
174 -340 0
41 -340 0
-174 -41 340 0
-339 337 0
-340 337 0
339 340 -337 0
42 175 -342 0
-42 175 342 0
42 -175 342 0
-42 -175 -342 0
342 337 -128 0
-342 337 128 0
342 -337 128 0
-342 -337 -128 0
337 -343 0
342 -343 0
-337 -342 343 0
175 -344 0
42 -344 0
-175 -42 344 0
-343 341 0
-344 341 0
343 344 -341 0
43 176 -346 0
-43 176 346 0
43 -176 346 0
-43 -176 -346 0
346 341 -129 0
-346 341 129 0
346 -341 129 0
-346 -341 -129 0
341 -347 0
346 -347 0
-341 -346 347 0
176 -348 0
43 -348 0
-176 -43 348 0
-347 345 0
-348 345 0
347 348 -345 0
345 131 -130 0
-345 131 130 0
345 -131 130 0
-345 -131 -130 0
